sat
(:card2bv-rewrites        18
 :max-memory              29.72
 :memory                  18.77
 :num-allocs              4039762
 :rlimit-count            48837
 :sat-backjumps           56
 :sat-conflicts           56
 :sat-decisions           298
 :sat-del-clause          30
 :sat-elim-clauses        14
 :sat-elim-literals       23
 :sat-minimized-lits      26
 :sat-mk-clause-2ary      6084
 :sat-mk-clause-nary      16200
 :sat-mk-var              5510
 :sat-propagations-2ary   10219
 :sat-propagations-nary   11406
 :sat-subs-resolution-dyn 3
 :sat-units               11
 :time                    0.03
 :total-time              0.05)
